Route #1: 137 70 194 176 206 57 189 152 122 77 179 37 180 66 4 75 208 143 106 197 26 112 62 61
Route #2: 22 138 120 193 140 39 192 157 110 43 80 119 150 171 196 198 74 134 85 146 175 181
Route #3: 10 125 71 81 188 212 139 202 25 29 123 32 78 174 165 185 96 135 27 50
Route #4: 91 142 86 207 121 126 55 58 169 8 159 177 200 94 158 100 170 12 155 28 88 172 14
Route #5: 151 65 99 64 145 6 35 161 92 128 40 21 167 34 69 214 84 89
Route #6: 160 24 95 33 132 9 163 7 213 13 186 117 98 199 3 49 131 204 209 114 190 15 201
Route #7: 17 46 141 90 18 130 11 118 107 102 63 97 101 124 103 1 72 23 133 105 59 144
Route #8: 191 79 111 45 41 42 16 164 127 44 87 115 203 113 38 76 108 54 129 156 136 148 30
Route #9: 5 56 210 173 166 83 149 36 153 183 48 47 205 67 68 168 52 20 187 195 51
Route #10: 154 184 182 82 73 178 116 162 211 104 60 93 19 147 109 53 31 2
cost: 102476
